p cnf 58 197
c p weight -7 1 0
c p weight 7 -1 0
c p weight 11 6.12323399573676603586882014729198302312846062338790031898128063403419218957424163818359375E-17 0
c p weight -11 1 0
c p weight 12 1 0
c p weight -12 1 0
c p weight -9 1 0
c p weight 9 -1 0
c p weight -13 1 0
c p weight 13 -1 0
c p weight -15 1 0
c p weight 15 -1 0
c p weight -16 1 0
c p weight 16 -1 0
c p weight 20 6.12323399573676603586882014729198302312846062338790031898128063403419218957424163818359375E-17 0
c p weight -20 1 0
c p weight 21 1 0
c p weight -21 1 0
c p weight -18 1 0
c p weight 18 -1 0
c p weight -22 1 0
c p weight 22 -1 0
c p weight -24 1 0
c p weight 24 -1 0
c p weight -25 1 0
c p weight 25 -1 0
c p weight -26 1 0
c p weight 26 -1 0
c p weight 30 6.12323399573676603586882014729198302312846062338790031898128063403419218957424163818359375E-17 0
c p weight -30 1 0
c p weight 31 1 0
c p weight -31 1 0
c p weight -28 1 0
c p weight 28 -1 0
c p weight -32 1 0
c p weight 32 -1 0
c p weight -34 1 0
c p weight 34 -1 0
c p weight -37 1 0
c p weight 37 -1 0
c p weight -38 1 0
c p weight 38 -1 0
c p weight 42 6.12323399573676603586882014729198302312846062338790031898128063403419218957424163818359375E-17 0
c p weight -42 1 0
c p weight 43 1 0
c p weight -43 1 0
c p weight -40 1 0
c p weight 40 -1 0
c p weight -44 1 0
c p weight 44 -1 0
c p weight -46 1 0
c p weight 46 -1 0
c p weight -49 1 0
c p weight 49 -1 0
c p weight -50 1 0
c p weight 50 -1 0
c p weight 54 6.12323399573676603586882014729198302312846062338790031898128063403419218957424163818359375E-17 0
c p weight -54 1 0
c p weight 55 1 0
c p weight -55 1 0
c p weight -52 1 0
c p weight 52 -1 0
c p weight -56 1 0
c p weight 56 -1 0
c p weight 58 0.5 0
c p weight -58 1 0
58 0
-5 0
-3 0
-1 0
-7 1 0
-7 2 0
7 -1 -2 0
8 1 -2 0
8 -1 2 0
-8 1 2 0
-8 -1 -2 0
-9 10 0
-9 8 0
-9 -1 0
9 -10 1 -8 0
10 -1 8 0
-10 1 8 0
-11 8 0
10 -11 -1 0
-10 -11 1 0
10 11 1 -8 0
-10 11 -1 -8 0
-12 8 0
10 -12 1 0
-10 -12 -1 0
10 12 -1 -8 0
-10 12 1 -8 0
-13 10 0
-13 8 0
13 -10 -8 0
14 10 -8 0
14 -10 8 0
-14 10 8 0
-14 -10 -8 0
15 -14 0
-15 14 0
-16 3 0
-16 4 0
16 -3 -4 0
17 3 -4 0
17 -3 4 0
-17 3 4 0
-17 -3 -4 0
-18 19 0
-18 17 0
-18 -3 0
18 -19 3 -17 0
19 -3 17 0
-19 3 17 0
-20 17 0
19 -20 -3 0
-19 -20 3 0
19 20 3 -17 0
-19 20 -3 -17 0
-21 17 0
19 -21 3 0
-19 -21 -3 0
19 21 -3 -17 0
-19 21 3 -17 0
-22 19 0
-22 17 0
22 -19 -17 0
23 19 -17 0
23 -19 17 0
-23 19 17 0
-23 -19 -17 0
24 -23 0
-24 23 0
25 -6 0
-25 6 0
-26 5 0
-26 6 0
26 -5 -6 0
27 5 -6 0
27 -5 6 0
-27 5 6 0
-27 -5 -6 0
-28 29 0
-28 27 0
-28 -5 0
28 -29 5 -27 0
29 -5 27 0
-29 5 27 0
-30 27 0
29 -30 -5 0
-29 -30 5 0
29 30 5 -27 0
-29 30 -5 -27 0
-31 27 0
29 -31 5 0
-29 -31 -5 0
29 31 -5 -27 0
-29 31 5 -27 0
-32 29 0
-32 27 0
32 -29 -27 0
33 29 -27 0
33 -29 27 0
-33 29 27 0
-33 -29 -27 0
-34 10 0
-34 33 0
-34 29 -14 0
-34 -29 14 0
34 -10 29 14 -33 0
34 -10 -29 -14 -33 0
36 10 -29 0
36 -10 29 0
-36 10 29 0
-36 -10 -29 0
35 14 -33 0
35 -14 33 0
-35 14 33 0
-35 -14 -33 0
37 -35 0
-37 35 0
-38 10 0
-38 35 0
38 -10 -35 0
39 10 -35 0
39 -10 35 0
-39 10 35 0
-39 -10 -35 0
-40 41 0
-40 39 0
-40 -10 0
40 -41 10 -39 0
41 -10 39 0
-41 10 39 0
-42 39 0
41 -42 -10 0
-41 -42 10 0
41 42 10 -39 0
-41 42 -10 -39 0
-43 39 0
41 -43 10 0
-41 -43 -10 0
41 43 -10 -39 0
-41 43 10 -39 0
-44 41 0
-44 39 0
44 -41 -39 0
45 41 -39 0
45 -41 39 0
-45 41 39 0
-45 -41 -39 0
-46 19 0
-46 33 0
-46 36 -23 0
-46 -36 23 0
46 -19 36 23 -33 0
46 -19 -36 -23 -33 0
48 19 -36 0
48 -19 36 0
-48 19 36 0
-48 -19 -36 0
47 23 -33 0
47 -23 33 0
-47 23 33 0
-47 -23 -33 0
49 -47 0
-49 47 0
-50 19 0
-50 47 0
50 -19 -47 0
51 19 -47 0
51 -19 47 0
-51 19 47 0
-51 -19 -47 0
-52 53 0
-52 51 0
-52 -19 0
52 -53 19 -51 0
53 -19 51 0
-53 19 51 0
-54 51 0
53 -54 -19 0
-53 -54 19 0
53 54 19 -51 0
-53 54 -19 -51 0
-55 51 0
53 -55 19 0
-53 -55 -19 0
53 55 -19 -51 0
-53 55 19 -51 0
-56 53 0
-56 51 0
56 -53 -51 0
57 53 -51 0
57 -53 51 0
-57 53 51 0
-57 -53 -51 0
-41 0
-53 0
-57 0
-48 0
-33 0
